34 34
21
3 3   28 14
3 4   31 19
3 5   31 29
3 6   31 23
3 7   28 27
3 8   31 11
3 9   25 25
3 10   28 17
3 11   31 0
3 12   22 22
3 13   19 21
3 14   28 0
3 21   19 0
3 22   22 0
3 25   25 0
3 34   16 0
4 4   12 0
4 5   12 29
4 11   12 18
4 14   12 4
12 34   0 0